100 208
7 28 2
11 30 1
8 23 1
12 28 1
11 17 1
13 17 2
5 18 2
8 10 1
6 14 1
9 17 2
13 26 10
14 14 1
28 35 4
29 35 1
29 33 3
14 35 2
13 33 2
9 32 5
11 26 4
8 18 2
19 32 2
15 24 2
11 15 2
11 34 2
24 34 3
17 30 2
15 17 2
18 32 2
19 31 1
9 33 2
13 14 2
8 12 4
15 33 4
17 21 2
14 32 2
17 33 4
8 14 2
11 25 8
18 31 2
16 32 2
13 18 2
13 32 2
14 25 1
12 35 2
12 15 4
11 35 2
10 35 2
10 13 2
10 36 2
31 36 6
12 33 1
13 19 1
6 19 1
5 25 2
10 24 1
5 6 1
11 16 4
6 33 1
6 16 2
8 19 2
8 13 2
8 9 1
7 32 2
6 18 2
5 9 1
8 11 1
9 26 2
9 18 2
11 14 2
12 17 2
12 32 1
12 30 1
5 14 1
12 19 1
12 29 1
14 34 1
12 27 1
11 22 1
11 32 1
13 22 1
13 21 1
12 16 1
18 30 1
13 16 1
11 31 1
10 31 1
15 32 1
8 33 1
8 15 2
11 29 2
4 29 2
6 11 1
9 29 1
7 16 4
7 15 4
7 18 2
8 20 9
10 15 2
5 11 1
5 22 2
50 100 
50 100 
50 100 
50 100 
50 100 
50 100 
50 100 
50 100 
50 100 
50 100 
50 100 
50 100 
50 100 
50 100 
50 100 
50 100 
50 100 
50 100 
50 100 
50 100 
50 100 
50 100 
50 100 
50 100 
50 100 
50 100 
50 100 
50 100 
50 100 
50 100 
50 100 
50 100 
50 100 
50 100 
50 100 
50 100 
50 100 
50 100 
50 100 
50 100 
50 100 
50 100 
50 100 
50 100 
50 100 
50 100 
50 100 
50 100 
50 100 
50 100 
50 100 
50 100 
50 100 
50 100 
50 100 
50 100 
50 100 
50 100 
50 100 
50 100 
50 100 
50 100 
50 100 
50 100 
50 100 
50 100 
50 100 
50 100 
50 100 
50 100 
50 100 
50 100 
50 100 
50 100 
50 100 
50 100 
50 100 
50 100 
50 100 
50 100 
50 100 
50 100 
50 100 
50 100 
50 100 
50 100 
50 100 
50 100 
50 100 
50 100 
50 100 
50 100 
50 100 
50 100 
50 100 
50 100 
50 100 
50 100 
50 100 
50 100 
50 100 
50 100 
50 100 
50 100 
50 100 
50 100 
50 100 
50 100 
50 100 
50 100 
50 100 
50 100 
50 100 
50 100 
50 100 
50 100 
50 100 
50 100 
50 100 
50 100 
50 100 
50 100 
50 100 
50 100 
50 100 
50 100 
50 100 
50 100 
50 100 
50 100 
50 100 
50 100 
50 100 
50 100 
50 100 
50 100 
50 100 
50 100 
50 100 
50 100 
50 100 
50 100 
50 100 
50 100 
50 100 
50 100 
50 100 
50 100 
50 100 
50 100 
50 100 
50 100 
50 100 
50 100 
50 100 
50 100 
50 100 
50 100 
50 100 
50 100 
50 100 
50 100 
50 100 
50 100 
50 100 
50 100 
50 100 
50 100 
50 100 
50 100 
50 100 
50 100 
50 100 
50 100 
50 100 
50 100 
50 100 
50 100 
50 100 
50 100 
50 100 
50 100 
50 100 
50 100 
50 100 
50 100 
50 100 
50 100 
50 100 
50 100 
50 100 
50 100 
50 100 
50 100 
50 100 
50 100 
50 100 
50 100 
50 100 
50 100 
50 100 
50 100 
50 100 
50 100 
50 100 
50 100 
50 100 
50 100 
